webassembly/ejemplos_dzn/16/folder16_json_86.dzn
TERM = { '.', 's(5)', 's(2)', 's(4)', 'in_1', 'local_0', 'local_1', 'in_6', 'in_2', 'in_4', 'in_3', 's(6)', 's(1)', 's(0)', 'in_7', 'in_5', 's(3)', 'in_0'};
null = '.';
s = 16;
n = 13;
ndeps = 5;
max_registers_sz = 5;
NR = 2;
registers = [|'local_0', 'in_4', |'local_1', 'in_3'|];
dependencies = [|'call[function_index(0)]_0', 'call[function_index(1)]_1', |'call[function_index(1)]_1', 'call[function_index(2)]_8', |'call[function_index(2)]_8', 'i32.store_9', |'i32.store_9', 'i32.load8_s_13', |'i32.store_9', 'i32.load_14'|];
GET_ENUM = { GET1, GET2, GET3, GET4, GET5, GET6, GET7};
SET_ENUM = { SET1, SET2, SET3, SET4, SET5, SET6, SET7};
TEE_ENUM = { TEE1, TEE2, TEE3, TEE4, TEE5, TEE6, TEE7};
N = 7;
OP = { 'call[function_index(0)]_0', 'call[function_index(1)]_1', 'call[function_index(2)]_8', 'i32.store_9', 'i32.const_0', 'i32.load8_s_13', 'i32.load_14' };
in_ops = [3, 2, 2, 2, 0, 1, 1 ];
out_ops = [3, 0, 1, 0, 1, 1, 1 ];
in1 = ['in_0', 's(2)', 'in_5', 's(3)', '.', 's(6)', 's(4)' ];
in2 = ['in_1', 's(1)', 'in_6', 'in_7', '.', '.', '.' ];
in3 = ['in_2', '.', '.', '.', '.', '.', '.' ];
out1 = ['s(2)', '.', 's(3)', '.', 's(6)', 's(4)', 's(5)' ];
out2 = ['s(1)', '.', '.', '.', '.', '.', '.' ];
out3 = ['s(0)', '.', '.', '.', '.', '.', '.' ];
comm = [false, false, false, false, false, false, false ];
gas = [1, 1, 1, 1, 1, 1, 1 ];
sz = [1, 1, 1, 1, 1, 1, 1 ];
stor = [true, true, true, true, false, false, false ];
lb = [ 1, 1, 1, 1, 1, 1, 1 ];
ub = [ 16, 16, 16, 16, 16, 16, 16 ];
startstack = [ 'in_0', 'in_1', 'in_2', 'in_3', 'in_4', 'in_5', 'in_6', 'in_7', null, null, null, null, null ];
endstack = [ 'in_3', 's(5)', null, null, null, null, null, null, null, null, null, null, null ];
